sat
(= |goto_symex::&92;guard#1| true)
(= |goto_symex::&92;guard#2| false)
(= |memory_model::choice_rf_1_35_0_10_T_0| false)
(= |memory_model::choice_rf_1_35_2_16_T_1| false)
(= |memory_model::choice_rf_1_35_3_18_T_2| true)
(= |memory_model::choice_rf_2_15_0_10_T_3| false)
(= |memory_model::choice_rf_2_15_1_36_T_4| false)
(= |memory_model::choice_rf_2_15_3_18_T_5| true)
(= |memory_model::choice_rf_3_17_0_10_T_6| true)
(= |memory_model::choice_rf_3_17_1_36_T_7| false)
(= |memory_model::choice_rf_3_17_2_16_T_8| false)
(= |memory_model::choice_rf_0_40_0_8_T_9| false)
(= |memory_model::choice_rf_0_40_0_36_T_10| true)
(= |memory_model::choice_rf_0_45_0_8_T_11| false)
(= |memory_model::choice_rf_0_45_0_36_T_12| false)
(= |memory_model::choice_rf_0_45_0_41_T_13| true)
(= |memory_model::choice_rf_0_66_0_17_F_14| false)
(= |memory_model::choice_rf_0_66_1_20_F_15| false)
(= |memory_model::choice_rf_0_66_2_0_F_16| true)
(= |memory_model::choice_rf_1_19_0_17_F_17| false)
(= |memory_model::choice_rf_1_19_2_0_F_18| false)
(= |memory_model::choice_rf_3_0_0_17_F_19| false)
(= |memory_model::choice_rf_3_0_1_20_F_20| false)
(= |memory_model::choice_rf_3_0_2_0_F_21| true)
(= |memory_model::choice_rf_0_49_0_11_F_22| false)
(= |memory_model::choice_rf_0_49_1_34_F_23| false)
(= |memory_model::choice_rf_0_49_2_14_F_24| true)
(= |memory_model::choice_rf_0_49_3_16_F_25| false)
(= |memory_model::choice_rf_1_33_0_11_F_26| true)
(= |memory_model::choice_rf_1_33_2_14_F_27| false)
(= |memory_model::choice_rf_1_33_3_16_F_28| false)
(= |memory_model::choice_rf_2_13_0_11_F_29| false)
(= |memory_model::choice_rf_2_13_1_34_F_30| false)
(= |memory_model::choice_rf_2_13_3_16_F_31| true)
(= |memory_model::choice_rf_3_15_0_11_F_32| false)
(= |memory_model::choice_rf_3_15_1_34_F_33| true)
(= |memory_model::choice_rf_3_15_2_14_F_34| false)
(= |memory_model::choice_rf_0_71_0_12_F_35| false)
(= |memory_model::choice_rf_0_71_3_1_F_36| true)
(= |memory_model::choice_rf_0_51_0_13_F_37| false)
(= |memory_model::choice_rf_0_51_0_50_F_38| true)
(= |memory_model::choice_rf_0_75_0_14_F_39| false)
(= |memory_model::choice_rf_0_90_0_14_F_40| false)
(= |memory_model::choice_rf_0_90_0_86_F_41| true)
(= |memory_model::choice_rf_0_91_0_14_F_42| false)
(= |memory_model::choice_rf_0_91_0_86_F_43| true)
(= |memory_model::choice_rf_0_52_0_18_F_44| false)
(= |memory_model::choice_rf_0_52_1_32_F_45| false)
(= |memory_model::choice_rf_0_52_2_12_F_46| true)
(= |memory_model::choice_rf_0_52_3_2_F_47| false)
(= |memory_model::choice_rf_0_52_3_14_F_48| false)
(= |memory_model::choice_rf_0_68_0_18_F_49| false)
(= |memory_model::choice_rf_0_68_0_63_F_50| true)
(= |memory_model::choice_rf_0_68_1_32_F_51| false)
(= |memory_model::choice_rf_0_68_2_12_F_52| false)
(= |memory_model::choice_rf_0_68_3_2_F_53| false)
(= |memory_model::choice_rf_0_68_3_14_F_54| false)
(= |memory_model::choice_rf_1_21_0_18_F_55| false)
(= |memory_model::choice_rf_1_21_0_63_F_56| false)
(= |memory_model::choice_rf_1_21_0_83_F_57| false)
(= |memory_model::choice_rf_1_21_2_12_F_58| false)
(= |memory_model::choice_rf_1_21_3_2_F_59| true)
(= |memory_model::choice_rf_1_21_3_14_F_60| false)
(= |memory_model::choice_rf_2_1_0_18_F_61| false)
(= |memory_model::choice_rf_2_1_0_63_F_62| false)
(= |memory_model::choice_rf_2_1_0_83_F_63| false)
(= |memory_model::choice_rf_2_1_1_32_F_64| false)
(= |memory_model::choice_rf_2_1_3_2_F_65| false)
(= |memory_model::choice_rf_2_1_3_14_F_66| true)
(= |memory_model::choice_rf_3_7_0_18_F_67| false)
(= |memory_model::choice_rf_3_7_0_63_F_68| false)
(= |memory_model::choice_rf_3_7_0_83_F_69| false)
(= |memory_model::choice_rf_3_7_1_32_F_70| true)
(= |memory_model::choice_rf_3_7_2_12_F_71| false)
(= |memory_model::choice_rf_3_7_3_2_F_72| false)
(= |memory_model::choice_rf_0_73_0_19_F_73| false)
(= |memory_model::choice_rf_0_69_0_20_F_74| false)
(= |memory_model::choice_rf_0_57_0_21_F_75| true)
(= |memory_model::choice_rf_0_72_0_21_F_76| false)
(= |memory_model::choice_rf_0_72_0_60_F_77| true)
(= |memory_model::choice_rf_1_7_0_21_F_78| true)
(= |memory_model::choice_rf_1_7_0_60_F_79| false)
(= |memory_model::choice_rf_1_7_0_79_F_80| false)
(= |memory_model::choice_rf_1_5_0_22_F_81| true)
(= |memory_model::choice_rf_1_26_0_22_F_82| false)
(= |memory_model::choice_rf_1_26_1_10_F_83| true)
(= |memory_model::choice_rf_1_3_0_23_F_84| true)
(= |memory_model::choice_rf_1_3_2_9_F_85| false)
(= |memory_model::choice_rf_2_6_0_23_F_86| true)
(= |memory_model::choice_rf_1_1_0_24_F_87| true)
(= |memory_model::choice_rf_1_1_3_10_F_88| false)
(= |memory_model::choice_rf_3_8_0_24_F_89| true)
(= |memory_model::choice_rf_0_56_0_25_F_90| false)
(= |memory_model::choice_rf_0_56_1_13_F_91| true)
(= |memory_model::choice_rf_0_74_0_25_F_92| false)
(= |memory_model::choice_rf_0_74_0_59_F_93| true)
(= |memory_model::choice_rf_0_74_1_13_F_94| false)
(= |memory_model::choice_rf_1_6_0_25_F_95| false)
(= |memory_model::choice_rf_1_6_0_59_F_96| false)
(= |memory_model::choice_rf_1_6_0_78_F_97| false)
(= |memory_model::choice_rf_1_4_0_26_F_98| false)
(= |memory_model::choice_rf_1_23_0_26_F_99| false)
(= |memory_model::choice_rf_1_23_1_12_F_100| true)
(= |memory_model::choice_rf_1_2_0_27_F_101| false)
(= |memory_model::choice_rf_1_2_2_8_F_102| false)
(= |memory_model::choice_rf_2_3_0_27_F_103| false)
(= |memory_model::choice_rf_2_3_1_11_F_104| true)
(= |memory_model::choice_rf_1_0_0_28_F_105| false)
(= |memory_model::choice_rf_1_0_3_12_F_106| false)
(= |memory_model::choice_rf_3_4_0_28_F_107| false)
(= |memory_model::choice_rf_3_4_1_14_F_108| true)
(= |memory_model::choice_rf_0_55_0_31_F_109| false)
(= |memory_model::choice_rf_0_55_1_17_F_110| true)
(= |memory_model::choice_rf_0_76_0_31_F_111| false)
(= |memory_model::choice_rf_0_76_1_17_F_112| true)
(= |memory_model::choice_rf_1_9_0_31_F_113| true)
(= |memory_model::choice_rf_1_9_0_82_F_114| false)
(= |memory_model::choice_rf_1_25_0_31_F_115| false)
(= |memory_model::choice_rf_1_25_0_82_F_116| false)
(= |memory_model::choice_rf_1_25_1_17_F_117| true)
(= |memory_model::choice_rf_2_5_0_31_F_118| false)
(= |memory_model::choice_rf_2_5_0_82_F_119| false)
(= |memory_model::choice_rf_2_5_1_17_F_120| true)
(= |memory_model::choice_rf_3_6_0_31_F_121| false)
(= |memory_model::choice_rf_3_6_0_82_F_122| false)
(= |memory_model::choice_rf_3_6_1_17_F_123| true)
(= |memory_model::choice_rf_0_58_0_32_F_124| false)
(= |memory_model::choice_rf_0_58_1_15_F_125| false)
(= |memory_model::choice_rf_0_58_1_31_F_126| false)
(= |memory_model::choice_rf_0_58_2_11_F_127| true)
(= |memory_model::choice_rf_0_58_3_13_F_128| false)
(= |memory_model::choice_rf_0_70_0_32_F_129| false)
(= |memory_model::choice_rf_0_70_0_62_F_130| true)
(= |memory_model::choice_rf_0_70_1_15_F_131| false)
(= |memory_model::choice_rf_0_70_1_31_F_132| false)
(= |memory_model::choice_rf_0_70_2_11_F_133| false)
(= |memory_model::choice_rf_0_70_3_13_F_134| false)
(= |memory_model::choice_rf_1_8_0_32_F_135| true)
(= |memory_model::choice_rf_1_8_0_62_F_136| false)
(= |memory_model::choice_rf_1_8_0_80_F_137| false)
(= |memory_model::choice_rf_1_8_2_11_F_138| false)
(= |memory_model::choice_rf_1_8_3_13_F_139| false)
(= |memory_model::choice_rf_1_27_0_32_F_140| false)
(= |memory_model::choice_rf_1_27_0_62_F_141| false)
(= |memory_model::choice_rf_1_27_0_80_F_142| false)
(= |memory_model::choice_rf_1_27_1_15_F_143| true)
(= |memory_model::choice_rf_1_27_2_11_F_144| false)
(= |memory_model::choice_rf_1_27_3_13_F_145| false)
(= |memory_model::choice_rf_2_7_0_32_F_146| false)
(= |memory_model::choice_rf_2_7_0_62_F_147| false)
(= |memory_model::choice_rf_2_7_0_80_F_148| false)
(= |memory_model::choice_rf_2_7_1_15_F_149| false)
(= |memory_model::choice_rf_2_7_1_31_F_150| false)
(= |memory_model::choice_rf_2_7_3_13_F_151| true)
(= |memory_model::choice_rf_3_9_0_32_F_152| false)
(= |memory_model::choice_rf_3_9_0_62_F_153| false)
(= |memory_model::choice_rf_3_9_0_80_F_154| false)
(= |memory_model::choice_rf_3_9_1_15_F_155| false)
(= |memory_model::choice_rf_3_9_1_31_F_156| true)
(= |memory_model::choice_rf_3_9_2_11_F_157| false)
(= |memory_model::choice_rf_0_53_0_33_F_158| false)
(= |memory_model::choice_rf_0_53_1_18_F_159| true)
(= |memory_model::choice_rf_0_77_0_33_F_160| false)
(= |memory_model::choice_rf_0_77_1_18_F_161| true)
(= |memory_model::choice_rf_1_22_0_33_F_162| false)
(= |memory_model::choice_rf_1_22_0_81_F_163| false)
(= |memory_model::choice_rf_1_22_1_18_F_164| true)
(= |memory_model::choice_rf_2_2_0_33_F_165| false)
(= |memory_model::choice_rf_2_2_0_81_F_166| false)
(= |memory_model::choice_rf_2_2_1_18_F_167| true)
(= |memory_model::choice_rf_3_3_0_33_F_168| false)
(= |memory_model::choice_rf_3_3_0_81_F_169| false)
(= |memory_model::choice_rf_3_3_1_18_F_170| true)
(= |memory_model::choice_rf_0_54_0_34_F_171| false)
(= |memory_model::choice_rf_0_54_1_16_F_172| false)
(= |memory_model::choice_rf_0_54_1_30_F_173| false)
(= |memory_model::choice_rf_0_54_2_10_F_174| true)
(= |memory_model::choice_rf_0_54_3_11_F_175| false)
(= |memory_model::choice_rf_0_65_0_34_F_176| false)
(= |memory_model::choice_rf_0_65_0_61_F_177| true)
(= |memory_model::choice_rf_0_65_1_16_F_178| false)
(= |memory_model::choice_rf_0_65_1_30_F_179| false)
(= |memory_model::choice_rf_0_65_2_10_F_180| false)
(= |memory_model::choice_rf_0_65_3_11_F_181| false)
(= |memory_model::choice_rf_1_24_0_34_F_182| false)
(= |memory_model::choice_rf_1_24_0_61_F_183| false)
(= |memory_model::choice_rf_1_24_0_88_F_184| false)
(= |memory_model::choice_rf_1_24_1_16_F_185| true)
(= |memory_model::choice_rf_1_24_2_10_F_186| false)
(= |memory_model::choice_rf_1_24_3_11_F_187| false)
(= |memory_model::choice_rf_2_4_0_34_F_188| false)
(= |memory_model::choice_rf_2_4_0_61_F_189| false)
(= |memory_model::choice_rf_2_4_0_88_F_190| false)
(= |memory_model::choice_rf_2_4_1_16_F_191| false)
(= |memory_model::choice_rf_2_4_1_30_F_192| false)
(= |memory_model::choice_rf_2_4_3_11_F_193| true)
(= |memory_model::choice_rf_3_5_0_34_F_194| false)
(= |memory_model::choice_rf_3_5_0_61_F_195| false)
(= |memory_model::choice_rf_3_5_0_88_F_196| false)
(= |memory_model::choice_rf_3_5_1_16_F_197| false)
(= |memory_model::choice_rf_3_5_1_30_F_198| true)
(= |memory_model::choice_rf_3_5_2_10_F_199| false)
(= |memory_model::choice_rf_0_64_0_15_F_200| false)
(= |memory_model::choice_rf_0_67_0_16_F_201| false)
(= |memory_model::choice_ws-ext_0_10_1_36_T_202| true)
(= |memory_model::choice_ws-ext_0_10_2_16_T_203| true)
(= |memory_model::choice_ws-ext_0_10_3_18_T_204| true)
(= |memory_model::choice_ws-ext_1_36_2_16_T_205| false)
(= |memory_model::choice_ws-ext_1_36_3_18_T_206| false)
(= |memory_model::choice_ws-ext_2_16_3_18_T_207| false)
(= |memory_model::choice_ws-ext_0_17_1_20_F_208| true)
(= |memory_model::choice_ws-ext_0_17_2_0_F_209| true)
(= |memory_model::choice_ws-ext_1_20_2_0_F_210| true)
(= |memory_model::choice_ws-ext_0_11_1_34_F_211| true)
(= |memory_model::choice_ws-ext_0_11_2_14_F_212| true)
(= |memory_model::choice_ws-ext_0_11_3_16_F_213| true)
(= |memory_model::choice_ws-ext_1_34_2_14_F_214| true)
(= |memory_model::choice_ws-ext_1_34_3_16_F_215| true)
(= |memory_model::choice_ws-ext_2_14_3_16_F_216| false)
(= |memory_model::choice_ws-ext_0_12_3_1_F_217| true)
(= |memory_model::choice_ws-ext_0_18_1_32_F_218| true)
(= |memory_model::choice_ws-ext_0_18_2_12_F_219| true)
(= |memory_model::choice_ws-ext_0_18_3_2_F_220| true)
(= |memory_model::choice_ws-ext_0_18_3_14_F_221| true)
(= |memory_model::choice_ws-ext_0_63_1_32_F_222| false)
(= |memory_model::choice_ws-ext_0_63_2_12_F_223| false)
(= |memory_model::choice_ws-ext_0_63_3_2_F_224| false)
(= |memory_model::choice_ws-ext_0_63_3_14_F_225| false)
(= |memory_model::choice_ws-ext_0_83_1_32_F_226| false)
(= |memory_model::choice_ws-ext_0_83_2_12_F_227| false)
(= |memory_model::choice_ws-ext_0_83_3_2_F_228| false)
(= |memory_model::choice_ws-ext_0_83_3_14_F_229| false)
(= |memory_model::choice_ws-ext_1_32_2_12_F_230| true)
(= |memory_model::choice_ws-ext_1_32_3_2_F_231| false)
(= |memory_model::choice_ws-ext_1_32_3_14_F_232| true)
(= |memory_model::choice_ws-ext_2_12_3_2_F_233| false)
(= |memory_model::choice_ws-ext_2_12_3_14_F_234| false)
(= |memory_model::choice_ws-ext_0_22_1_10_F_235| true)
(= |memory_model::choice_ws-ext_0_22_1_29_F_236| true)
(= |memory_model::choice_ws-ext_0_23_2_9_F_237| true)
(= |memory_model::choice_ws-ext_0_24_3_10_F_238| true)
(= |memory_model::choice_ws-ext_0_25_1_13_F_239| true)
(= |memory_model::choice_ws-ext_0_59_1_13_F_240| false)
(= |memory_model::choice_ws-ext_0_78_1_13_F_241| false)
(= |memory_model::choice_ws-ext_0_26_1_12_F_242| true)
(= |memory_model::choice_ws-ext_0_26_1_28_F_243| true)
(= |memory_model::choice_ws-ext_0_27_1_11_F_244| true)
(= |memory_model::choice_ws-ext_0_27_2_8_F_245| true)
(= |memory_model::choice_ws-ext_1_11_2_8_F_246| true)
(= |memory_model::choice_ws-ext_0_28_1_14_F_247| true)
(= |memory_model::choice_ws-ext_0_28_3_12_F_248| true)
(= |memory_model::choice_ws-ext_1_14_3_12_F_249| true)
(= |memory_model::choice_ws-ext_0_31_1_17_F_250| true)
(= |memory_model::choice_ws-ext_0_82_1_17_F_251| false)
(= |memory_model::choice_ws-ext_0_32_1_15_F_252| true)
(= |memory_model::choice_ws-ext_0_32_1_31_F_253| true)
(= |memory_model::choice_ws-ext_0_32_2_11_F_254| true)
(= |memory_model::choice_ws-ext_0_32_3_13_F_255| true)
(= |memory_model::choice_ws-ext_0_62_1_15_F_256| false)
(= |memory_model::choice_ws-ext_0_62_1_31_F_257| false)
(= |memory_model::choice_ws-ext_0_62_2_11_F_258| false)
(= |memory_model::choice_ws-ext_0_62_3_13_F_259| false)
(= |memory_model::choice_ws-ext_0_80_1_15_F_260| false)
(= |memory_model::choice_ws-ext_0_80_1_31_F_261| false)
(= |memory_model::choice_ws-ext_0_80_2_11_F_262| false)
(= |memory_model::choice_ws-ext_0_80_3_13_F_263| false)
(= |memory_model::choice_ws-ext_1_15_2_11_F_264| true)
(= |memory_model::choice_ws-ext_1_15_3_13_F_265| true)
(= |memory_model::choice_ws-ext_1_31_2_11_F_266| true)
(= |memory_model::choice_ws-ext_1_31_3_13_F_267| true)
(= |memory_model::choice_ws-ext_2_11_3_13_F_268| false)
(= |memory_model::choice_ws-ext_0_33_1_18_F_269| true)
(= |memory_model::choice_ws-ext_0_81_1_18_F_270| false)
(= |memory_model::choice_ws-ext_0_34_1_16_F_271| true)
(= |memory_model::choice_ws-ext_0_34_1_30_F_272| true)
(= |memory_model::choice_ws-ext_0_34_2_10_F_273| true)
(= |memory_model::choice_ws-ext_0_34_3_11_F_274| true)
(= |memory_model::choice_ws-ext_0_61_1_16_F_275| false)
(= |memory_model::choice_ws-ext_0_61_1_30_F_276| false)
(= |memory_model::choice_ws-ext_0_61_2_10_F_277| false)
(= |memory_model::choice_ws-ext_0_61_3_11_F_278| false)
(= |memory_model::choice_ws-ext_0_88_1_16_F_279| false)
(= |memory_model::choice_ws-ext_0_88_1_30_F_280| false)
(= |memory_model::choice_ws-ext_0_88_2_10_F_281| false)
(= |memory_model::choice_ws-ext_0_88_3_11_F_282| false)
(= |memory_model::choice_ws-ext_1_16_2_10_F_283| true)
(= |memory_model::choice_ws-ext_1_16_3_11_F_284| true)
(= |memory_model::choice_ws-ext_1_30_2_10_F_285| true)
(= |memory_model::choice_ws-ext_1_30_3_11_F_286| true)
(= |memory_model::choice_ws-ext_2_10_3_11_F_287| false)
(= |main$tmp_guard0#3| #b00000001)
(= |__CPROVER_next_thread_id#3| #b00000000000000000000000000000001)
(= |__CPROVER_next_thread_id#6| #b00000000000000000000000000000010)
(= |__unbuffered_cnt#2| #b00000000000000000000000000000011)
(= |y$w_buff0_used#2| #b00000000)
(= |y$r_buff0_thd0#2| #b00000000)
(= |y$w_buff0#2| #b00000000000000000000000000000010)
(= |y$w_buff1_used#2| #b00000000)
(= |y$r_buff1_thd0#2| #b00000000)
(= |y$w_buff1#2| #b00000000000000000000000000000000)
(= |y#2| #b00000000000000000000000000000010)
(= |y#4| #b00000000000000000000000000000010)
(= |y$w_buff0_used#6| #b00000000)
(= |y$w_buff1_used#6| #b00000000)
(= |y$r_buff0_thd0#8| #b00000000)
(= |y$r_buff1_thd0#7| #b00000000)
(= |nondet_symex::nondet0| #b00000000000000000000000000000000)
(= |weak$$choice0#2| #b00000000)
(= |weak$$choice0#3| #b10000000)
(= |nondet_symex::nondet1| #b00000000000000000000000000000000)
(= |weak$$choice2#2| #b00000000)
(= |weak$$choice2#3| #b10000000)
(= |y$flush_delayed#2| #b00000000)
(= |y$flush_delayed#3| #b10000000)
(= |y#6| #b00000000000000000000000000000010)
(= |y$mem_tmp#2| #b00000000000000000000000000000010)
(= |y$mem_tmp#3| #b10000000000000000000000000000000)
(= |y$w_buff0_used#11| #b00000000)
(= |y$r_buff0_thd0#11| #b00000000)
(= |y$w_buff1_used#9| #b00000000)
(= |y$r_buff1_thd0#9| #b00000000)
(= |y$w_buff0#4| #b00000000000000000000000000000010)
(= |y$w_buff1#4| #b00000000000000000000000000000000)
(= |y#9| #b00000000000000000000000000000010)
(= |y$w_buff0#10| #b00000000000000000000000000000010)
(= |y$w_buff1#10| #b00000000000000000000000000000000)
(= |y$w_buff0_used#23| #b00000000)
(= |y$w_buff1_used#17| #b00000000)
(= |y$r_buff0_thd0#33| #b00000000)
(= |y$r_buff1_thd0#19| #b00000000)
(= |x#2| #b00000000000000000000000000000010)
(= |__unbuffered_p2_EAX#2| #b00000000000000000000000000000010)
(= |main$tmp_guard1#2| #b00000000)
(= |main$tmp_guard1#3| #b10000000)
(= |y#13| #b00000000000000000000000000000010)
(= |y$flush_delayed#6| #b00000000)
(= |main$tmp_guard1#6| #b00000000)
(= |pthread_create::1::this_thread_id!1@0#0| #b10000000000000000000000000000000)
(= |y$w_buff0#12| #b00000000000000000000000000000000)
(= |y$w_buff0_used#31| #b00000000)
(= |y$r_buff0_thd0#38| #b00000000)
(= |y$r_buff1_thd0#21| #b00000000)
(= |y$r_buff1_thd0#22| #b10000000)
(= |y$r_buff0_thd1#2| #b00000000)
(= |y$r_buff1_thd1#2| #b00000000)
(= |y$r_buff1_thd1#3| #b10000000)
(= |y$r_buff0_thd2#2| #b00000000)
(= |y$r_buff1_thd2#2| #b00000000)
(= |y$r_buff1_thd2#3| #b10000000)
(= |y$r_buff0_thd3#2| #b00000000)
(= |y$r_buff1_thd3#2| #b00000000)
(= |y$r_buff1_thd3#3| #b10000000)
(= |y$r_buff0_thd1#4| #b00000001)
(= |x#4| #b00000000000000000000000000000001)
(= |x#5| #b10000000000000000000000000000000)
(= |y$w_buff0_used#34| #b00000001)
(= |y$r_buff0_thd1#6| #b00000001)
(= |y$w_buff0#15| #b00000000000000000000000000000010)
(= |y$w_buff1_used#22| #b00000000)
(= |y$r_buff1_thd1#5| #b00000000)
(= |y$w_buff1#13| #b00000000000000000000000000000000)
(= |y#15| #b00000000000000000000000000000001)
(= |y#17| #b00000000000000000000000000000010)
(= |y$w_buff0_used#38| #b00000000)
(= |y$w_buff1_used#26| #b00000000)
(= |y$r_buff0_thd1#12| #b00000001)
(= |y$r_buff1_thd1#10| #b00000000)
(= |__unbuffered_cnt#4| #b00000000000000000000000000000000)
(= |__unbuffered_cnt#6| #b00000000000000000000000000000001)
(= |pthread_create::1::this_thread_id!2@0#0| #b00000000000000000000000000000000)
(= |y$w_buff0_used#43| #b00000000)
(= |y$r_buff0_thd2#4| #b00000000)
(= |y$w_buff0#17| #b00000000000000000000000000000010)
(= |y$w_buff1_used#29| #b00000000)
(= |y$r_buff1_thd2#5| #b00000000)
(= |y$w_buff1#15| #b00000000000000000000000000000000)
(= |y#19| #b00000000000000000000000000000010)
(= |__unbuffered_cnt#8| #b00000000000000000000000000000010)
(= |pthread_create::1::this_thread_id!3@0#0| #b00000000000000000000000000000000)
(= |x#8| #b00000000000000000000000000000010)
(= |y$w_buff0_used#46| #b00000000)
(= |y$r_buff0_thd3#4| #b00000000)
(= |y$w_buff0#19| #b00000000000000000000000000000010)
(= |y$w_buff1_used#32| #b00000000)
(= |y$r_buff1_thd3#5| #b00000000)
(= |y$w_buff1#17| #b00000000000000000000000000000000)
(= |y#23| #b00000000000000000000000000000010)
(= |__unbuffered_cnt#11| #b00000000000000000000000000000001)
(= |__CPROVER_threads_exited#1$wclk$8| #b00100110)
(= |__CPROVER_threads_exited#2$rclk$8| #b11111010)
(= |__CPROVER_threads_exited#5$wclk$8| #b11111100)
(= |__CPROVER_threads_exited#7$wclk$8| #b11011111)
(= |__CPROVER_threads_exited#4$rclk$8| #b11101111)
(= |__CPROVER_threads_exited#3$wclk$8| #b11111110)
(= |__CPROVER_threads_exited#6$rclk$8| #b11011110)
(= |x#6$wclk$8| #b10100111)
(= |x#2$rclk$8| #b11101010)
(= |x#7$wclk$8| #b10101111)
(= |x#1$wclk$8| #b00101101)
(= |x#5$rclk$8| #b10100111)
(= |x#8$rclk$8| #b10111010)
(= |__unbuffered_cnt#7$wclk$8| #b10111110)
(= |__unbuffered_cnt#2$rclk$8| #b11001011)
(= |__unbuffered_cnt#10$wclk$8| #b11001010)
(= |__unbuffered_cnt#13$wclk$8| #b11001000)
(= |__unbuffered_cnt#1$wclk$8| #b00100111)
(= |__unbuffered_cnt#4$rclk$8| #b10111110)
(= |__unbuffered_cnt#8$rclk$8| #b11001010)
(= |__unbuffered_cnt#11$rclk$8| #b11001000)
(= |__unbuffered_p2_EAX#4$wclk$8| #b10111010)
(= |__unbuffered_p2_EAX#2$rclk$8| #b11101010)
(= |main$tmp_guard1#5| #b00000000)
(= |y#18$wclk$8| #b10111101)
(= |y#2$rclk$8| #b11101000)
(= |y#21$wclk$8| #b11001001)
(= |y#22$wclk$8| #b10111011)
(= |y#25$wclk$8| #b11000110)
(= |y#6$rclk$8| #b11101010)
(= |y#1$wclk$8| #b01000000)
(= |y#15$rclk$8| #b10111101)
(= |y#5$wclk$8| #b11101000)
(= |y#14$wclk$8| #b11101010)
(= |y#19$rclk$8| #b11001001)
(= |y#23$rclk$8| #b11000110)
(= |y$r_buff0_thd0#1$wclk$8| #b01000011)
(= |y$r_buff0_thd0#38$rclk$8| #b10100000)
(= |y$r_buff0_thd0#10$wclk$8| #b11101000)
(= |y$r_buff0_thd0#37$wclk$8| #b11101010)
(= |y$r_buff0_thd1#1$wclk$8| #b01000100)
(= |y$r_buff0_thd1#2$rclk$8| #b10100000)
(= |y$r_buff0_thd1#6$rclk$8| #b10111101)
(= |y$r_buff0_thd2#1$wclk$8| #b01000101)
(= |y$r_buff0_thd2#2$rclk$8| #b10100000)
(= |y$r_buff0_thd2#6$wclk$8| #b11001001)
(= |y$r_buff0_thd2#4$rclk$8| #b11001001)
(= |y$r_buff0_thd3#1$wclk$8| #b01000110)
(= |y$r_buff0_thd3#2$rclk$8| #b10100000)
(= |y$r_buff0_thd3#6$wclk$8| #b11000110)
(= |y$r_buff0_thd3#4$rclk$8| #b11000110)
(= |y$r_buff1_thd0#23$wclk$8| #b10100000)
(= |y$r_buff1_thd0#2$rclk$8| #b11101000)
(= |y$r_buff1_thd0#9$rclk$8| #b11101010)
(= |y$r_buff1_thd0#1$wclk$8| #b01000111)
(= |y$r_buff1_thd0#22$rclk$8| #b10100000)
(= |y$r_buff1_thd0#8$wclk$8| #b11101000)
(= |y$r_buff1_thd0#20$wclk$8| #b11101010)
(= |y$r_buff1_thd1#1$wclk$8| #b01001001)
(= |y$r_buff1_thd1#3$rclk$8| #b10100000)
(= |y$r_buff1_thd1#5$rclk$8| #b10111101)
(= |y$r_buff1_thd2#1$wclk$8| #b01001010)
(= |y$r_buff1_thd2#3$rclk$8| #b10100000)
(= |y$r_buff1_thd2#7$wclk$8| #b11001001)
(= |y$r_buff1_thd2#5$rclk$8| #b11001001)
(= |y$r_buff1_thd2#4$wclk$8| #b10100000)
(= |y$r_buff1_thd3#1$wclk$8| #b01010000)
(= |y$r_buff1_thd3#3$rclk$8| #b10100000)
(= |y$r_buff1_thd3#7$wclk$8| #b11000110)
(= |y$r_buff1_thd3#5$rclk$8| #b11000110)
(= |y$r_buff1_thd3#4$wclk$8| #b10100000)
(= |y$w_buff0#14$wclk$8| #b10100000)
(= |y$w_buff0#2$rclk$8| #b11101000)
(= |y$w_buff0#4$rclk$8| #b11101010)
(= |y$w_buff0#1$wclk$8| #b01100011)
(= |y$w_buff0#12$rclk$8| #b10100000)
(= |y$w_buff0#11$wclk$8| #b11101010)
(= |y$w_buff0#15$rclk$8| #b10111101)
(= |y$w_buff0#17$rclk$8| #b11001001)
(= |y$w_buff0#19$rclk$8| #b11000110)
(= |y$w_buff0_used#33$wclk$8| #b10100000)
(= |y$w_buff0_used#2$rclk$8| #b11101000)
(= |y$w_buff0_used#42$wclk$8| #b10111101)
(= |y$w_buff0_used#45$wclk$8| #b11001001)
(= |y$w_buff0_used#48$wclk$8| #b11000110)
(= |y$w_buff0_used#11$rclk$8| #b11101010)
(= |y$w_buff0_used#1$wclk$8| #b01100100)
(= |y$w_buff0_used#31$rclk$8| #b10100000)
(= |y$w_buff0_used#10$wclk$8| #b11101000)
(= |y$w_buff0_used#30$wclk$8| #b11101010)
(= |y$w_buff0_used#34$rclk$8| #b10111101)
(= |y$w_buff0_used#43$rclk$8| #b11001001)
(= |y$w_buff0_used#46$rclk$8| #b11000110)
(= |y$w_buff1#12$wclk$8| #b10100000)
(= |y$w_buff1#2$rclk$8| #b11101000)
(= |y$w_buff1#4$rclk$8| #b11101010)
(= |y$w_buff1#1$wclk$8| #b01100101)
(= |y$w_buff1#13$rclk$8| #b10111101)
(= |y$w_buff1#11$wclk$8| #b11101010)
(= |y$w_buff1#15$rclk$8| #b11001001)
(= |y$w_buff1#17$rclk$8| #b11000110)
(= |y$w_buff1_used#21$wclk$8| #b10100000)
(= |y$w_buff1_used#2$rclk$8| #b11101000)
(= |y$w_buff1_used#28$wclk$8| #b10111101)
(= |y$w_buff1_used#31$wclk$8| #b11001001)
(= |y$w_buff1_used#34$wclk$8| #b11000110)
(= |y$w_buff1_used#9$rclk$8| #b11101010)
(= |y$w_buff1_used#1$wclk$8| #b01100110)
(= |y$w_buff1_used#22$rclk$8| #b10111101)
(= |y$w_buff1_used#8$wclk$8| #b11101000)
(= |y$w_buff1_used#20$wclk$8| #b11101010)
(= |y$w_buff1_used#29$rclk$8| #b11001001)
(= |y$w_buff1_used#32$rclk$8| #b11000110)
(= |__unbuffered_p2_EAX#1$wclk$8| #b00101000)
(= |y$r_buff0_thd1#5$wclk$8| #b10100000)
(= |y$r_buff0_thd1#14$wclk$8| #b10111101)
(= |y$r_buff1_thd1#4$wclk$8| #b10100000)
(= |y$r_buff1_thd1#11$wclk$8| #b10111101)
(= t1$38$spwnclk$8 #b10011000)
(= t1$43$spwnclk$8 #b10101110)
(= t1$48$spwnclk$8 #b10111001)
(= |main::1::t2186!0@1$wclk$8| #b00000000)
(= |main::1::t2187!0@1$wclk$8| #b00010000)
(= |__CPROVER_dead_object#1$wclk$8| #b00010001)
(= |__CPROVER_deallocated#1$wclk$8| #b00010010)
(= |__CPROVER_malloc_is_new_array#1$wclk$8| #b00100000)
(= |__CPROVER_malloc_object#1$wclk$8| #b00100001)
(= |__CPROVER_malloc_size#1$wclk$8| #b00100010)
(= |__CPROVER_memory_leak#1$wclk$8| #b00100011)
(= |__CPROVER_next_thread_id#1$wclk$8| #b00100100)
(= |__CPROVER_pipe_count#1$wclk$8| #b00100101)
(= |main$tmp_guard0#1$wclk$8| #b00101001)
(= |main$tmp_guard1#1$wclk$8| #b00101010)
(= |weak$$choice0#1$wclk$8| #b00101011)
(= |weak$$choice2#1$wclk$8| #b00101100)
(= |y$flush_delayed#1$wclk$8| #b01000001)
(= |y$mem_tmp#1$wclk$8| #b01000010)
(= |y$read_delayed#1$wclk$8| #b01100001)
(= |y$read_delayed_var#1$wclk$8| #b01100010)
(= |main::1::t2185!0@1#1$wclk$8| #b10000111)
(= |__CPROVER_next_thread_id#2$wclk$8| #b10001010)
(= |main::1::t2185!0@1#2$wclk$8| #b10001011)
(= |main::1::t2186!0@1#1$wclk$8| #b10011001)
(= |__CPROVER_next_thread_id#3$rclk$8| #b10101010)
(= |__CPROVER_next_thread_id#5$wclk$8| #b10101010)
(= |main::1::t2186!0@1#2$wclk$8| #b10101011)
(= |main::1::t2187!0@1#1$wclk$8| #b10101111)
(= |__CPROVER_next_thread_id#6$rclk$8| #b10110111)
(= |__CPROVER_next_thread_id#8$wclk$8| #b10110111)
(= |main::1::t2187!0@1#2$wclk$8| #b10111000)
(= |main$tmp_guard0#2$wclk$8| #b11001011)
(= |main$tmp_guard0#3$rclk$8| #b11001111)
(= |y$r_buff0_thd0#2$rclk$8| #b11101000)
(= |weak$$choice0#3$rclk$8| #b11101010)
(= |weak$$choice2#3$rclk$8| #b11101010)
(= |y$mem_tmp#3$rclk$8| #b11101010)
(= |y$r_buff0_thd0#11$rclk$8| #b11101010)
(= |y$flush_delayed#3$rclk$8| #b11101010)
(= |main$tmp_guard1#3$rclk$8| #b11101010)
(= |y$mem_tmp#5$wclk$8| #b11101010)
(= |y$flush_delayed#7$wclk$8| #b11101010)
(= |main$tmp_guard1#4$wclk$8| #b11101010)
(= |weak$$choice2#11$wclk$8| #b11101010)
(= |weak$$choice0#4$wclk$8| #b11101010)
(= |main$tmp_guard1#5$rclk$8| #b11111110)
(= |main$tmp_guard1#6$rclk$8| #b11111111)
(= array_of.0 @fun_9)
(= |__CPROVER_threads_exited#2| @fun_7)
(= |__CPROVER_threads_exited#4| @fun_7)
(= |__CPROVER_threads_exited#6| @fun_9)
(function @fun_9
 (type (Array (_ BitVec 32) (_ BitVec 1)))
 (= (@fun_9 #b10000000000000000000000000000000) #b0)
 (= (@fun_9 #b00000000000000000000000000000000) #b0)
 (default #b1))
(function @fun_7
 (type (Array (_ BitVec 32) (_ BitVec 1)))
 (= (@fun_7 #b10000000000000000000000000000000) #b0)
 (default #b1))

real	0m0.024s
user	0m0.020s
sys	0m0.003s
State: AC Run_time: 0.025778532028198242